
Gurobi 11.0.2 (win64) logging started Sun Aug 18 12:23:20 2024

Set parameter LogFile to value "D:\Documenti\Scuola\Laurea magistrale unibs\laurea-unibs-mkfsp\output\2024-08-18T10_03_15.889499\logs\instance03_bucket6.log"
Set parameter TimeLimit to value 350
Set parameter MIPGap to value 0
Gurobi Optimizer version 11.0.2 build v11.0.2rc0 (win64 - Windows 10.0 (19045.2))

CPU model: Intel(R) Core(TM) i5-4670 CPU @ 3.40GHz, instruction set [SSE2|AVX|AVX2]
Thread count: 4 physical cores, 4 logical processors, using up to 4 threads

Optimize a model with 2379 rows, 12220 columns and 131115 nonzeros
Model fingerprint: 0x9036af43
Variable types: 0 continuous, 12220 integer (12125 binary)
Coefficient statistics:
  Matrix range     [1e+00, 8e+03]
  Objective range  [6e+02, 8e+03]
  Bounds range     [1e+00, 1e+00]
  RHS range        [1e+00, 5e+05]
Found heuristic solution: objective 454366.00000
Presolve time: 0.17s
Presolved: 2379 rows, 12220 columns, 131115 nonzeros
Variable types: 0 continuous, 12220 integer (12125 binary)
Found heuristic solution: objective 470708.00000
Deterministic concurrent LP optimizer: primal and dual simplex
Showing primal log only...

Concurrent spin time: 0.00s

Solved with dual simplex

Root relaxation: objective 5.405940e+05, 734 iterations, 0.07 seconds (0.07 work units)

    Nodes    |    Current Node    |     Objective Bounds      |     Work
 Expl Unexpl |  Obj  Depth IntInf | Incumbent    BestBd   Gap | It/Node Time

H    0     0                    540594.00000 540594.000  0.00%     -    0s
     0     0 540594.000    0  566 540594.000 540594.000  0.00%     -    0s

Explored 1 nodes (734 simplex iterations) in 0.27 seconds (0.24 work units)
Thread count was 4 (of 4 available processors)

Solution count 3: 540594 470708 454366 

Optimal solution found (tolerance 0.00e+00)
Best objective 5.405940000000e+05, best bound 5.405940000000e+05, gap 0.0000%
